NAME : mtspf
TYPE : AGTSP
DIMENSION : 11
GTSP_SETS : 5
EDGE_WEIGHT_TYPE : EXPLICIT
EDGE_WEIGHT_FORMAT : FULL_MATRIX
EDGE_WEIGHT_SECTION
0 -99999 99999 3 2 3 4 5 4 5 6 
99999 0 -99999 99999 99999 99999 99999 6 5 6 7 
0 99999 0 -99999 -99999 -99999 -99999 99999 99999 99999 99999 
0 0 0 0 0 0 0 99999 99999 99999 99999 
0 0 0 0 0 0 0 99999 99999 99999 99999 
0 0 0 0 0 0 0 99999 99999 99999 99999 
0 0 0 0 0 0 0 99999 99999 99999 99999 
0 0 0 4 5 4 3 0 0 0 0 
0 0 0 5 6 5 4 0 0 0 0 
0 0 0 4 5 4 3 0 0 0 0 
0 0 0 3 4 3 2 0 0 0 0 
GTSP_SET_SECTION
1 1 -1
2 2 -1
3 3 -1
4 4 5 6 7 -1
5 8 9 10 11 -1
